db/inputs/24832339325268200282375716092380929232.smt2
(set-logic QF_FP)
(declare-const x0 (_ FloatingPoint 11 53))
(declare-const x1 (_ FloatingPoint 11 53))
(declare-const x2 (_ FloatingPoint 11 53))
(declare-const x3 (_ FloatingPoint 11 53))
(declare-const x4 (_ FloatingPoint 11 53))
(declare-const x5 (_ FloatingPoint 11 53))
(assert (fp.lt (fp.mul RNE x1 x1) (fp.neg x3)))
(assert (fp.geq (fp.neg x0) (fp.sub RNE x4 x3)))
(assert (fp.gt (fp.sub RNE x4 x3) (fp.div RNE x5 x1)))
(assert (fp.leq (fp.neg x4) (fp.div RNE x0 x2)))
(assert (fp.leq (fp.add RNE x0 x4) (fp.sub RNE x3 x5)))
(assert (fp.eq (fp.mul RNE x5 x4) (fp.div RNE x4 x2)))
(assert (fp.eq (fp.div RNE x1 x3) (fp.neg x4)))
(check-sat)
