db/data/24832339325268200282375716092380929232.z3.out
-------------------
2500.049090914
